NAME          
ROWS
 N  OBJ
 L  c1
 L  c2
COLUMNS
    MARKER    'MARKER'                 'INTORG'
    x[1]      c1        803
    x[1]      c2        690
    x[1]      OBJ       -834
    x[2]      c1        636
    x[2]      c2        492
    x[2]      OBJ       -74
    x[3]      c1        131
    x[3]      c2        388
    x[3]      OBJ       -871
    x[4]      c1        704
    x[4]      c2        457
    x[4]      OBJ       -230
    x[5]      c1        467
    x[5]      c2        135
    x[5]      OBJ       -294
    x[6]      c1        924
    x[6]      c2        317
    x[6]      OBJ       -509
    x[7]      c1        968
    x[7]      c2        743
    x[7]      OBJ       -21
    x[8]      c1        317
    x[8]      c2        146
    x[8]      OBJ       -967
    x[9]      c1        314
    x[9]      c2        969
    x[9]      OBJ       -273
    x[10]     c1        224
    x[10]     c2        562
    x[10]     OBJ       -910
    x[11]     c1        974
    x[11]     c2        304
    x[11]     OBJ       -486
    x[12]     c1        120
    x[12]     c2        806
    x[12]     OBJ       -96
    x[13]     c1        837
    x[13]     c2        85
    x[13]     OBJ       -956
    x[14]     c1        203
    x[14]     c2        893
    x[14]     OBJ       -180
    x[15]     c1        980
    x[15]     c2        670
    x[15]     OBJ       -791
    x[16]     c1        182
    x[16]     c2        597
    x[16]     OBJ       -697
    x[17]     c1        113
    x[17]     c2        905
    x[17]     OBJ       -388
    x[18]     c1        858
    x[18]     c2        241
    x[18]     OBJ       -336
    x[19]     c1        105
    x[19]     c2        872
    x[19]     OBJ       -924
    x[20]     c1        110
    x[20]     c2        48
    x[20]     OBJ       -215
RHS
    rhs       c1        4985
    rhs       c2        5160
RANGES
BOUNDS
 LO bounds    x[1]      0
 PL bounds    x[1]
 LO bounds    x[2]      0
 PL bounds    x[2]
 LO bounds    x[3]      0
 PL bounds    x[3]
 LO bounds    x[4]      0
 PL bounds    x[4]
 LO bounds    x[5]      0
 PL bounds    x[5]
 LO bounds    x[6]      0
 PL bounds    x[6]
 LO bounds    x[7]      0
 PL bounds    x[7]
 LO bounds    x[8]      0
 PL bounds    x[8]
 LO bounds    x[9]      0
 PL bounds    x[9]
 LO bounds    x[10]     0
 PL bounds    x[10]
 LO bounds    x[11]     0
 PL bounds    x[11]
 LO bounds    x[12]     0
 PL bounds    x[12]
 LO bounds    x[13]     0
 PL bounds    x[13]
 LO bounds    x[14]     0
 PL bounds    x[14]
 LO bounds    x[15]     0
 PL bounds    x[15]
 LO bounds    x[16]     0
 PL bounds    x[16]
 LO bounds    x[17]     0
 PL bounds    x[17]
 LO bounds    x[18]     0
 PL bounds    x[18]
 LO bounds    x[19]     0
 PL bounds    x[19]
 LO bounds    x[20]     0
 PL bounds    x[20]
ENDATA
